c A SAT instance generated from a 3-CNF formula that had 20 clauses and 10 variables
p cnf 10 20
4 2 -10 0
10 -5 -9 0
5 9 8 0
9 10 1 0
9 -1 -2 0
5 3 -9 0
-7 2 -4 0
3 2 4 0
3 1 -8 0
-7 -9 5 0
-7 -2 -8 0
-6 -9 -2 0
-10 3 4 0
-6 2 -10 0
9 -6 -7 0
2 6 9 0
-6 -8 -2 0
2 3 -10 0
-2 10 -7 0
-3 -5 -10 0
